coords = array2d(1..33, 1..2, [501, 276, 688, 720, 396, 298, 458, 254, 152,
    325, 292, 813, 279, 816, 461, 727, 911, 640, 699, 127, 13, 102,
    808, 568, 155, 212, 925, 576, 18, 14, 303, 937, 518, 893, 170,
    945, 638, 917, 822, 402, 610, 81, 22, 951, 10, 590, 119, 684, 633,
    715, 502, 727, 205, 446, 816, 141, 25, 112, 513, 821, 269, 902,
    793, 57, 479, 180]);

n = 33;

